0 84
1 39
2 93
3 70
4 61
5 8
6 100
7 51
8 33
9 52
10 89
11 77
12 20
13 75
14 2
15 80
16 56
17 19
18 45
19 60
20 85
21 53
22 1
23 53
24 39
25 71
26 21
27 18
28 94
29 70
30 75
31 94
32 55
33 14
34 62
35 27
36 85
37 56
38 25
39 29
40 65
41 59
42 13
43 16
44 39
45 28
46 94
47 73
48 77
49 92
50 89
51 86
52 54
53 81
54 38
55 88
56 14
57 96
58 32
59 80
60 20
61 85
62 91
63 100
64 86
65 5
66 18
67 21
68 77
69 72
70 49
71 99
72 81
73 16
74 28
75 66
76 8
77 19
78 15
79 3
80 16
81 51
82 100
83 27
84 47
85 25
86 61
87 34
